c 
c U(n,d) graph
c graph gen seed     : 219666
c number of vertices : 80
c max number of edges: 3160
c Euclidean distance : 0.400000
c data structure     : sparse
c
c           Graph Stats
c number of vertices  : 80
c nonisolated vertices: 80
c number of edges     : 1025
c edge density        : 0.324367
c max degree          : 40
c avg degree          : 25.62
c min degree          : 11
p col 80 1025
e 1 79
e 1 78
e 1 77
e 1 74
e 1 73
e 1 72
e 1 71
e 1 67
e 1 65
e 1 62
e 1 60
e 1 58
e 1 57
e 1 54
e 1 53
e 1 51
e 1 45
e 1 42
e 1 40
e 1 35
e 1 34
e 1 32
e 1 24
e 1 22
e 1 20
e 1 17
e 1 15
e 1 13
e 1 12
e 1 10
e 1 7
e 1 4
e 1 3
e 1 2
e 2 78
e 2 77
e 2 71
e 2 69
e 2 68
e 2 67
e 2 65
e 2 58
e 2 53
e 2 51
e 2 47
e 2 40
e 2 35
e 2 34
e 2 33
e 2 32
e 2 30
e 2 29
e 2 17
e 2 16
e 2 13
e 2 12
e 2 10
e 2 6
e 2 4
e 3 78
e 3 77
e 3 76
e 3 74
e 3 73
e 3 72
e 3 62
e 3 61
e 3 60
e 3 58
e 3 54
e 3 51
e 3 45
e 3 41
e 3 24
e 3 22
e 3 17
e 3 15
e 3 8
e 3 7
e 4 78
e 4 71
e 4 69
e 4 68
e 4 67
e 4 65
e 4 58
e 4 47
e 4 40
e 4 34
e 4 33
e 4 32
e 4 30
e 4 29
e 4 17
e 4 16
e 4 13
e 4 12
e 4 10
e 4 6
e 5 80
e 5 69
e 5 68
e 5 64
e 5 63
e 5 53
e 5 50
e 5 49
e 5 47
e 5 44
e 5 39
e 5 37
e 5 36
e 5 35
e 5 33
e 5 32
e 5 31
e 5 28
e 5 27
e 5 25
e 5 21
e 5 19
e 5 11
e 5 6
e 6 80
e 6 78
e 6 69
e 6 68
e 6 67
e 6 63
e 6 57
e 6 53
e 6 50
e 6 49
e 6 47
e 6 44
e 6 42
e 6 40
e 6 36
e 6 35
e 6 34
e 6 33
e 6 32
e 6 31
e 6 30
e 6 27
e 6 21
e 6 20
e 6 19
e 6 17
e 6 11
e 7 79
e 7 78
e 7 77
e 7 76
e 7 74
e 7 73
e 7 72
e 7 70
e 7 62
e 7 61
e 7 60
e 7 58
e 7 57
e 7 54
e 7 51
e 7 45
e 7 42
e 7 41
e 7 35
e 7 24
e 7 22
e 7 20
e 7 17
e 7 15
e 7 12
e 7 8
e 8 79
e 8 78
e 8 77
e 8 74
e 8 73
e 8 72
e 8 70
e 8 66
e 8 60
e 8 58
e 8 57
e 8 54
e 8 46
e 8 45
e 8 43
e 8 42
e 8 41
e 8 38
e 8 35
e 8 24
e 8 23
e 8 22
e 8 20
e 8 17
e 8 15
e 9 79
e 9 75
e 9 70
e 9 66
e 9 59
e 9 56
e 9 55
e 9 52
e 9 48
e 9 46
e 9 43
e 9 41
e 9 38
e 9 26
e 9 23
e 9 18
e 9 14
e 10 78
e 10 77
e 10 71
e 10 68
e 10 67
e 10 65
e 10 62
e 10 58
e 10 51
e 10 40
e 10 34
e 10 32
e 10 30
e 10 29
e 10 17
e 10 16
e 10 13
e 10 12
e 11 80
e 11 79
e 11 75
e 11 66
e 11 64
e 11 63
e 11 57
e 11 56
e 11 53
e 11 52
e 11 50
e 11 49
e 11 47
e 11 46
e 11 44
e 11 42
e 11 39
e 11 38
e 11 37
e 11 36
e 11 35
e 11 33
e 11 32
e 11 31
e 11 28
e 11 27
e 11 26
e 11 25
e 11 23
e 11 21
e 11 20
e 11 19
e 11 14
e 12 78
e 12 77
e 12 73
e 12 71
e 12 67
e 12 65
e 12 62
e 12 58
e 12 54
e 12 51
e 12 40
e 12 35
e 12 34
e 12 30
e 12 24
e 12 22
e 12 20
e 12 17
e 12 15
e 12 13
e 13 71
e 13 68
e 13 67
e 13 65
e 13 58
e 13 51
e 13 40
e 13 34
e 13 30
e 13 29
e 13 17
e 13 16
e 14 79
e 14 75
e 14 70
e 14 66
e 14 64
e 14 63
e 14 59
e 14 57
e 14 56
e 14 55
e 14 52
e 14 48
e 14 46
e 14 43
e 14 42
e 14 38
e 14 36
e 14 35
e 14 31
e 14 26
e 14 25
e 14 23
e 14 20
e 14 18
e 15 79
e 15 78
e 15 77
e 15 76
e 15 74
e 15 73
e 15 72
e 15 70
e 15 65
e 15 62
e 15 61
e 15 60
e 15 58
e 15 57
e 15 54
e 15 51
e 15 45
e 15 42
e 15 41
e 15 38
e 15 35
e 15 24
e 15 22
e 15 20
e 15 17
e 16 71
e 16 69
e 16 68
e 16 67
e 16 47
e 16 40
e 16 34
e 16 30
e 16 29
e 17 79
e 17 78
e 17 77
e 17 74
e 17 73
e 17 72
e 17 68
e 17 67
e 17 65
e 17 62
e 17 60
e 17 58
e 17 57
e 17 53
e 17 51
e 17 45
e 17 42
e 17 40
e 17 35
e 17 34
e 17 32
e 17 24
e 17 22
e 17 20
e 18 75
e 18 70
e 18 66
e 18 59
e 18 56
e 18 55
e 18 52
e 18 48
e 18 46
e 18 43
e 18 41
e 18 38
e 18 26
e 18 23
e 19 80
e 19 75
e 19 64
e 19 63
e 19 57
e 19 56
e 19 53
e 19 52
e 19 50
e 19 49
e 19 44
e 19 39
e 19 37
e 19 36
e 19 33
e 19 32
e 19 31
e 19 28
e 19 27
e 19 26
e 19 25
e 19 23
e 19 21
e 20 79
e 20 78
e 20 77
e 20 75
e 20 74
e 20 73
e 20 72
e 20 70
e 20 66
e 20 60
e 20 58
e 20 57
e 20 56
e 20 53
e 20 52
e 20 46
e 20 45
e 20 43
e 20 42
e 20 41
e 20 38
e 20 36
e 20 35
e 20 33
e 20 32
e 20 31
e 20 26
e 20 23
e 20 22
e 21 80
e 21 69
e 21 68
e 21 64
e 21 63
e 21 57
e 21 53
e 21 50
e 21 49
e 21 47
e 21 44
e 21 42
e 21 39
e 21 37
e 21 36
e 21 35
e 21 33
e 21 32
e 21 31
e 21 28
e 21 27
e 21 25
e 22 79
e 22 78
e 22 77
e 22 75
e 22 74
e 22 73
e 22 72
e 22 70
e 22 66
e 22 62
e 22 60
e 22 58
e 22 57
e 22 56
e 22 53
e 22 46
e 22 45
e 22 43
e 22 42
e 22 41
e 22 38
e 22 35
e 22 31
e 22 24
e 22 23
e 23 79
e 23 77
e 23 75
e 23 74
e 23 73
e 23 70
e 23 66
e 23 64
e 23 63
e 23 59
e 23 57
e 23 56
e 23 55
e 23 53
e 23 52
e 23 48
e 23 46
e 23 43
e 23 42
e 23 41
e 23 38
e 23 36
e 23 35
e 23 31
e 23 26
e 23 25
e 24 78
e 24 77
e 24 76
e 24 74
e 24 73
e 24 72
e 24 65
e 24 62
e 24 61
e 24 60
e 24 58
e 24 54
e 24 51
e 24 45
e 25 80
e 25 75
e 25 64
e 25 63
e 25 56
e 25 53
e 25 52
e 25 50
e 25 44
e 25 39
e 25 37
e 25 36
e 25 33
e 25 31
e 25 28
e 25 27
e 25 26
e 26 79
e 26 75
e 26 70
e 26 66
e 26 64
e 26 63
e 26 59
e 26 57
e 26 56
e 26 55
e 26 53
e 26 52
e 26 48
e 26 46
e 26 43
e 26 42
e 26 38
e 26 36
e 26 35
e 26 31
e 27 80
e 27 69
e 27 64
e 27 63
e 27 50
e 27 49
e 27 47
e 27 44
e 27 39
e 27 37
e 27 36
e 27 33
e 27 28
e 28 80
e 28 64
e 28 63
e 28 53
e 28 50
e 28 49
e 28 44
e 28 39
e 28 37
e 28 36
e 28 33
e 28 31
e 29 71
e 29 69
e 29 68
e 29 67
e 29 47
e 29 40
e 29 34
e 29 32
e 29 30
e 30 71
e 30 69
e 30 68
e 30 67
e 30 49
e 30 47
e 30 40
e 30 34
e 30 33
e 30 32
e 31 80
e 31 79
e 31 78
e 31 77
e 31 75
e 31 73
e 31 70
e 31 66
e 31 64
e 31 63
e 31 57
e 31 56
e 31 53
e 31 52
e 31 46
e 31 44
e 31 42
e 31 38
e 31 36
e 31 35
e 31 33
e 31 32
e 32 80
e 32 78
e 32 69
e 32 68
e 32 67
e 32 57
e 32 53
e 32 49
e 32 47
e 32 44
e 32 42
e 32 40
e 32 36
e 32 35
e 32 34
e 32 33
e 33 80
e 33 69
e 33 68
e 33 67
e 33 64
e 33 63
e 33 57
e 33 53
e 33 50
e 33 49
e 33 47
e 33 44
e 33 42
e 33 39
e 33 37
e 33 36
e 33 35
e 34 78
e 34 71
e 34 69
e 34 68
e 34 67
e 34 65
e 34 58
e 34 51
e 34 47
e 34 40
e 35 79
e 35 78
e 35 77
e 35 75
e 35 74
e 35 73
e 35 72
e 35 70
e 35 66
e 35 63
e 35 58
e 35 57
e 35 56
e 35 53
e 35 52
e 35 47
e 35 46
e 35 44
e 35 42
e 35 38
e 35 36
e 36 80
e 36 79
e 36 75
e 36 66
e 36 64
e 36 63
e 36 57
e 36 56
e 36 53
e 36 52
e 36 50
e 36 46
e 36 44
e 36 42
e 36 39
e 36 38
e 36 37
e 37 80
e 37 64
e 37 63
e 37 50
e 37 49
e 37 44
e 37 39
e 38 79
e 38 77
e 38 75
e 38 74
e 38 73
e 38 72
e 38 70
e 38 66
e 38 63
e 38 60
e 38 59
e 38 57
e 38 56
e 38 55
e 38 53
e 38 52
e 38 48
e 38 46
e 38 45
e 38 43
e 38 42
e 38 41
e 39 80
e 39 64
e 39 63
e 39 50
e 39 49
e 39 44
e 40 78
e 40 71
e 40 69
e 40 68
e 40 67
e 40 65
e 40 58
e 40 51
e 40 47
e 41 79
e 41 77
e 41 75
e 41 74
e 41 73
e 41 72
e 41 70
e 41 66
e 41 60
e 41 57
e 41 56
e 41 55
e 41 48
e 41 46
e 41 45
e 41 43
e 41 42
e 42 79
e 42 78
e 42 77
e 42 75
e 42 74
e 42 73
e 42 72
e 42 70
e 42 66
e 42 63
e 42 60
e 42 58
e 42 57
e 42 56
e 42 53
e 42 52
e 42 46
e 42 45
e 42 43
e 43 79
e 43 75
e 43 74
e 43 73
e 43 72
e 43 70
e 43 66
e 43 60
e 43 59
e 43 57
e 43 56
e 43 55
e 43 52
e 43 48
e 43 46
e 43 45
e 44 80
e 44 69
e 44 68
e 44 67
e 44 64
e 44 63
e 44 53
e 44 50
e 44 49
e 44 47
e 45 79
e 45 78
e 45 77
e 45 76
e 45 74
e 45 73
e 45 72
e 45 70
e 45 62
e 45 61
e 45 60
e 45 58
e 45 57
e 45 54
e 45 46
e 46 79
e 46 75
e 46 74
e 46 73
e 46 70
e 46 66
e 46 63
e 46 59
e 46 57
e 46 56
e 46 55
e 46 52
e 46 48
e 47 80
e 47 69
e 47 68
e 47 67
e 47 53
e 47 49
e 48 79
e 48 75
e 48 70
e 48 66
e 48 59
e 48 56
e 48 55
e 48 52
e 49 80
e 49 69
e 49 68
e 49 67
e 49 53
e 49 50
e 50 80
e 50 69
e 50 64
e 50 63
e 51 78
e 51 77
e 51 76
e 51 71
e 51 65
e 51 62
e 51 61
e 51 58
e 51 54
e 52 79
e 52 75
e 52 70
e 52 66
e 52 64
e 52 63
e 52 59
e 52 57
e 52 56
e 52 55
e 52 53
e 53 80
e 53 79
e 53 78
e 53 77
e 53 75
e 53 73
e 53 69
e 53 68
e 53 67
e 53 64
e 53 63
e 53 58
e 53 57
e 53 56
e 54 77
e 54 76
e 54 74
e 54 72
e 54 65
e 54 62
e 54 61
e 54 60
e 54 58
e 55 75
e 55 70
e 55 66
e 55 59
e 55 56
e 56 79
e 56 77
e 56 75
e 56 73
e 56 70
e 56 66
e 56 64
e 56 63
e 56 59
e 56 57
e 57 79
e 57 78
e 57 77
e 57 75
e 57 74
e 57 73
e 57 72
e 57 70
e 57 66
e 57 63
e 57 58
e 58 79
e 58 78
e 58 77
e 58 74
e 58 73
e 58 72
e 58 67
e 58 65
e 58 62
e 58 60
e 59 70
e 59 66
e 60 79
e 60 78
e 60 77
e 60 76
e 60 74
e 60 73
e 60 72
e 60 70
e 60 62
e 60 61
e 61 76
e 61 72
e 61 62
e 62 78
e 62 77
e 62 76
e 62 74
e 62 72
e 62 65
e 63 80
e 63 75
e 63 66
e 63 64
e 64 80
e 64 75
e 65 78
e 65 77
e 65 71
e 65 67
e 66 79
e 66 75
e 66 73
e 66 70
e 67 78
e 67 71
e 67 69
e 67 68
e 68 80
e 68 71
e 68 69
e 69 80
e 70 79
e 70 77
e 70 75
e 70 74
e 70 73
e 70 72
e 72 79
e 72 78
e 72 77
e 72 76
e 72 74
e 72 73
e 73 79
e 73 78
e 73 77
e 73 75
e 73 74
e 74 79
e 74 78
e 74 77
e 75 79
e 75 77
e 77 79
e 77 78
e 78 79
